p cnf 92 320
-1 2 -3 0
1 -2 -3 0
-1 -2 3 0
1 2 3 0
-4 -5 -6 0
4 5 -6 0
-4 5 6 0
4 -5 6 0
7 3 0
7 6 0
-3 -6 -7 0
-10 8 0
-10 -9 0
-8 9 10 0
-8 -11 -12 0
8 11 -12 0
-8 11 12 0
8 -11 12 0
13 -10 0
13 12 0
10 -12 -13 0
-15 -14 0
-15 -5 0
14 5 15 0
-10 8 -16 0
10 -8 -16 0
-10 -8 16 0
10 8 16 0
-17 -16 0
-17 -8 0
16 8 17 0
18 15 0
18 -17 0
-15 17 -18 0
-19 -18 0
-19 16 0
18 -16 19 0
-13 19 -20 0
13 -19 -20 0
-13 -19 20 0
13 19 20 0
-21 7 0
-21 20 0
-7 -20 21 0
23 -16 0
23 -4 0
16 4 -23 0
-24 -22 0
-24 -23 0
22 23 24 0
26 -25 0
26 1 0
25 -1 -26 0
27 26 0
27 -17 0
-26 17 -27 0
-28 -24 0
-28 -27 0
24 27 28 0
29 2 0
29 17 0
-2 -17 -29 0
-30 -1 0
-30 8 0
1 -8 30 0
-31 3 0
-31 -30 0
-3 30 31 0
-32 18 0
-32 16 0
-18 -16 32 0
-31 -32 -33 0
31 32 -33 0
-31 32 33 0
31 -32 33 0
-29 -33 -34 0
29 33 -34 0
-29 33 34 0
29 -33 34 0
-10 36 -37 0
10 -36 -37 0
-10 -36 37 0
10 36 37 0
-38 -35 0
-38 -37 0
35 37 38 0
40 -39 0
40 11 0
39 -11 -40 0
-41 -5 0
-41 -40 0
5 40 41 0
-2 -42 0
2 -42 0
41 42 -43 0
-41 -42 -43 0
41 -42 43 0
-41 42 43 0
44 -43 0
44 -4 0
43 4 -44 0
38 -44 -45 0
-38 44 -45 0
38 44 45 0
-38 -44 45 0
-34 -45 -46 0
34 45 -46 0
-34 45 46 0
34 -45 46 0
47 28 0
47 46 0
-28 -46 -47 0
21 -47 -48 0
-21 47 -48 0
21 47 48 0
-21 -47 48 0
49 -36 0
49 -14 0
36 14 -49 0
5 -39 -50 0
-5 39 -50 0
5 39 50 0
-5 -39 50 0
49 -50 -51 0
-49 50 -51 0
49 50 51 0
-49 -50 51 0
-52 -6 0
-52 11 0
6 -11 52 0
-53 -51 0
-53 -52 0
51 52 53 0
-19 16 -54 0
19 -16 -54 0
-19 -16 54 0
19 16 54 0
55 15 0
55 -50 0
-15 50 -55 0
-35 -25 -56 0
35 25 -56 0
-35 25 56 0
35 -25 56 0
-57 -35 0
-57 -56 0
35 56 57 0
58 -23 0
58 -11 0
23 11 -58 0
-57 58 -59 0
57 -58 -59 0
-57 -58 59 0
57 58 59 0
-60 55 0
-60 59 0
-55 -59 60 0
6 -10 -61 0
-6 10 -61 0
6 10 61 0
-6 -10 61 0
62 8 0
62 -11 0
-8 11 -62 0
-63 61 0
-63 -62 0
-61 62 63 0
-15 -63 -64 0
15 63 -64 0
-15 63 64 0
15 -63 64 0
49 -26 -65 0
-49 26 -65 0
49 26 65 0
-49 -26 65 0
-66 64 0
-66 65 0
-64 -65 66 0
61 13 -67 0
-61 -13 -67 0
61 -13 67 0
-61 13 67 0
-68 -66 0
-68 -67 0
66 67 68 0
-69 -60 0
-69 68 0
60 -68 69 0
54 69 -70 0
-54 -69 -70 0
54 -69 70 0
-54 69 70 0
-71 -53 0
-71 70 0
53 -70 71 0
48 -71 -72 0
-48 71 -72 0
48 71 72 0
-48 -71 72 0
73 43 0
73 -36 0
-43 36 -73 0
-74 14 0
-74 -9 0
-14 9 74 0
75 7 0
75 -74 0
-7 74 -75 0
40 -75 -76 0
-40 75 -76 0
40 75 76 0
-40 -75 76 0
-10 -76 -77 0
10 76 -77 0
-10 76 77 0
10 -76 77 0
26 -4 -78 0
-26 4 -78 0
26 4 78 0
-26 -4 78 0
-77 -78 -79 0
77 78 -79 0
-77 78 79 0
77 -78 79 0
13 19 -80 0
-13 -19 -80 0
13 -19 80 0
-13 19 80 0
81 30 0
81 39 0
-30 -39 -81 0
83 10 0
83 82 0
-10 -82 -83 0
-81 83 -84 0
81 -83 -84 0
-81 -83 84 0
81 83 84 0
85 -80 0
85 -84 0
80 84 -85 0
-79 -85 -86 0
79 85 -86 0
-79 85 86 0
79 -85 86 0
87 51 0
87 -4 0
-51 4 -87 0
86 -87 -88 0
-86 87 -88 0
86 87 88 0
-86 -87 88 0
-73 88 -89 0
73 -88 -89 0
-73 -88 89 0
73 88 89 0
90 16 0
90 -23 0
-16 23 -90 0
-89 -90 -91 0
89 90 -91 0
-89 90 91 0
89 -90 91 0
92 72 0
92 91 0
-72 -91 -92 0
16 -4 -61 -49 -28 -25 0
89 -35 -9 0
71 -28 0
-86 -88 69 -4 71 0
46 86 0
-11 34 -38 -67 -17 0
5 63 -8 -42 -52 -10 0
35 -34 -20 -84 0
-2 81 -44 -19 29 -77 0
-18 44 40 0
-81 -45 0
-28 60 17 54 0
-83 81 0
-17 -59 24 -62 0
10 71 -55 0
85 -47 11 0
-46 -44 -65 -56 92 0
-77 43 9 -18 0
-66 -60 0
-88 -91 61 23 0
-51 17 31 4 28 0
-70 35 0
41 38 19 20 -23 0
-61 54 30 0
-16 83 0
-86 -27 -21 -59 -79 0
-22 46 -89 37 88 0
-11 9 -70 -14 -29 54 0
-5 -75 -37 57 -26 19 0
-11 -66 0
-42 -25 -15 62 22 38 0
-28 -16 0
-82 16 0
-82 -90 9 -10 0
-50 24 -42 0
-55 39 0
-51 24 0
-38 -70 -61 10 67 0
-14 -46 -76 0
13 -25 -88 48 -27 0
26 -69 0
52 56 82 72 17 0
-22 32 30 0
-46 29 -39 0
-87 7 -48 32 80 75 0
12 73 -45 -47 -59 0
-3 -60 0
76 -5 -44 60 0
47 -8 83 0
-35 54 0
-21 63 0
-70 -15 -19 35 -11 -40 0
3 56 -34 35 -17 -20 0
92 0
